
  22   10
  10   10   10   10   10   10   10   10   10   10

   0   0   0   0   0   0   0   0   0   0   0  12 2 3 4 5 6 7 8 17 18 19 20 21 
   1   0   0  10   0   0   0   0   0   0   0   4 16 15 11 10 
   3   0   0   0   0  10   0   0   0   0   0   2 14 9 
   8   0   0   0   0   0   0  10   0   0   0   2 13 10 
   9   0  10   0   0   0   0   0   0   0   0   1 9 
   3   0   0   0   0   0  10   0   0   0   0   1 12 
   6  10   0   0   0   0   0   0   0   0   0   1 11 
   9   0   0   0  10   0   0   0   0   0   0   1 9 
   9  10   0   0   0   0   0   0   0   0   0   1 22
  10   0   0  10   0   0   0   0   0   0   0   1 22
   3   0   0   0   0   0   0   0  10   0   0   1 22
   1   0   0   0   0   0   0   0   0   0  10   1 22
   3   0   0   0  10   0   0   0   0   0   0   1 22
   4   0   0   0   0   0   0  10   0   0   0   1 22
   3   0   0   0   0  10   0   0   0   0   0   1 22
   8   0  10   0   0   0   0   0   0   0   0   1 22
   8   0  10   0   0   0   0   0   0   0   0   1 22
   4   0   0   0   0  10   0   0   0   0   0   1 22
  10   0  10   0   0   0   0   0   0   0   0   1 22
  10   0   0   0   0   0   0   0   0  10   0   1 22
   4   0   0   0   0   0   0  10   0   0   0   1 22
   0   0   0   0   0   0   0   0   0   0   0   0 
